(set-logic QF_LRA)
(declare-fun X0 () Real )
(declare-fun Y0 () Real )
(declare-fun X1 () Real )
(declare-fun Y1 () Real )
(declare-fun X2 () Real )
(declare-fun Y2 () Real )
(declare-fun X3 () Real )
(declare-fun Y3 () Real )
(declare-fun X4 () Real )
(declare-fun Y4 () Real )
(declare-fun X5 () Real )
(declare-fun Y5 () Real )
(declare-fun X6 () Real )
(declare-fun Y6 () Real )
(declare-fun X7 () Real )
(declare-fun Y7 () Real )
(declare-fun X8 () Real )
(declare-fun Y8 () Real )
(declare-fun Z () Real )
(declare-fun k () Real )
(assert (let
(( $goal (>= Z k) ))
(let
((
$phi ( and 
( or ( <= ( + X0 87 ) X1 )  ( <= ( + X1 58 ) X0 )  ( <= ( + Y0 46 ) Y1 )  ( <= ( + Y1 18 ) Y0 )  )
( or ( <= ( + X0 87 ) X2 )  ( <= ( + X2 36 ) X0 )  ( <= ( + Y0 46 ) Y2 )  ( <= ( + Y2 100 ) Y0 )  )
( or ( <= ( + X0 87 ) X3 )  ( <= ( + X3 88 ) X0 )  ( <= ( + Y0 46 ) Y3 )  ( <= ( + Y3 82 ) Y0 )  )
( or ( <= ( + X0 87 ) X4 )  ( <= ( + X4 78 ) X0 )  ( <= ( + Y0 46 ) Y4 )  ( <= ( + Y4 25 ) Y0 )  )
( or ( <= ( + X0 87 ) X5 )  ( <= ( + X5 61 ) X0 )  ( <= ( + Y0 46 ) Y5 )  ( <= ( + Y5 86 ) Y0 )  )
( or ( <= ( + X0 87 ) X6 )  ( <= ( + X6 66 ) X0 )  ( <= ( + Y0 46 ) Y6 )  ( <= ( + Y6 47 ) Y0 )  )
( or ( <= ( + X0 87 ) X7 )  ( <= ( + X7 78 ) X0 )  ( <= ( + Y0 46 ) Y7 )  ( <= ( + Y7 49 ) Y0 )  )
( or ( <= ( + X0 87 ) X8 )  ( <= ( + X8 50 ) X0 )  ( <= ( + Y0 46 ) Y8 )  ( <= ( + Y8 88 ) Y0 )  )
( or ( <= ( + X1 58 ) X2 )  ( <= ( + X2 36 ) X1 )  ( <= ( + Y1 18 ) Y2 )  ( <= ( + Y2 100 ) Y1 )  )
( or ( <= ( + X1 58 ) X3 )  ( <= ( + X3 88 ) X1 )  ( <= ( + Y1 18 ) Y3 )  ( <= ( + Y3 82 ) Y1 )  )
( or ( <= ( + X1 58 ) X4 )  ( <= ( + X4 78 ) X1 )  ( <= ( + Y1 18 ) Y4 )  ( <= ( + Y4 25 ) Y1 )  )
( or ( <= ( + X1 58 ) X5 )  ( <= ( + X5 61 ) X1 )  ( <= ( + Y1 18 ) Y5 )  ( <= ( + Y5 86 ) Y1 )  )
( or ( <= ( + X1 58 ) X6 )  ( <= ( + X6 66 ) X1 )  ( <= ( + Y1 18 ) Y6 )  ( <= ( + Y6 47 ) Y1 )  )
( or ( <= ( + X1 58 ) X7 )  ( <= ( + X7 78 ) X1 )  ( <= ( + Y1 18 ) Y7 )  ( <= ( + Y7 49 ) Y1 )  )
( or ( <= ( + X1 58 ) X8 )  ( <= ( + X8 50 ) X1 )  ( <= ( + Y1 18 ) Y8 )  ( <= ( + Y8 88 ) Y1 )  )
( or ( <= ( + X2 36 ) X3 )  ( <= ( + X3 88 ) X2 )  ( <= ( + Y2 100 ) Y3 )  ( <= ( + Y3 82 ) Y2 )  )
( or ( <= ( + X2 36 ) X4 )  ( <= ( + X4 78 ) X2 )  ( <= ( + Y2 100 ) Y4 )  ( <= ( + Y4 25 ) Y2 )  )
( or ( <= ( + X2 36 ) X5 )  ( <= ( + X5 61 ) X2 )  ( <= ( + Y2 100 ) Y5 )  ( <= ( + Y5 86 ) Y2 )  )
( or ( <= ( + X2 36 ) X6 )  ( <= ( + X6 66 ) X2 )  ( <= ( + Y2 100 ) Y6 )  ( <= ( + Y6 47 ) Y2 )  )
( or ( <= ( + X2 36 ) X7 )  ( <= ( + X7 78 ) X2 )  ( <= ( + Y2 100 ) Y7 )  ( <= ( + Y7 49 ) Y2 )  )
( or ( <= ( + X2 36 ) X8 )  ( <= ( + X8 50 ) X2 )  ( <= ( + Y2 100 ) Y8 )  ( <= ( + Y8 88 ) Y2 )  )
( or ( <= ( + X3 88 ) X4 )  ( <= ( + X4 78 ) X3 )  ( <= ( + Y3 82 ) Y4 )  ( <= ( + Y4 25 ) Y3 )  )
( or ( <= ( + X3 88 ) X5 )  ( <= ( + X5 61 ) X3 )  ( <= ( + Y3 82 ) Y5 )  ( <= ( + Y5 86 ) Y3 )  )
( or ( <= ( + X3 88 ) X6 )  ( <= ( + X6 66 ) X3 )  ( <= ( + Y3 82 ) Y6 )  ( <= ( + Y6 47 ) Y3 )  )
( or ( <= ( + X3 88 ) X7 )  ( <= ( + X7 78 ) X3 )  ( <= ( + Y3 82 ) Y7 )  ( <= ( + Y7 49 ) Y3 )  )
( or ( <= ( + X3 88 ) X8 )  ( <= ( + X8 50 ) X3 )  ( <= ( + Y3 82 ) Y8 )  ( <= ( + Y8 88 ) Y3 )  )
( or ( <= ( + X4 78 ) X5 )  ( <= ( + X5 61 ) X4 )  ( <= ( + Y4 25 ) Y5 )  ( <= ( + Y5 86 ) Y4 )  )
( or ( <= ( + X4 78 ) X6 )  ( <= ( + X6 66 ) X4 )  ( <= ( + Y4 25 ) Y6 )  ( <= ( + Y6 47 ) Y4 )  )
( or ( <= ( + X4 78 ) X7 )  ( <= ( + X7 78 ) X4 )  ( <= ( + Y4 25 ) Y7 )  ( <= ( + Y7 49 ) Y4 )  )
( or ( <= ( + X4 78 ) X8 )  ( <= ( + X8 50 ) X4 )  ( <= ( + Y4 25 ) Y8 )  ( <= ( + Y8 88 ) Y4 )  )
( or ( <= ( + X5 61 ) X6 )  ( <= ( + X6 66 ) X5 )  ( <= ( + Y5 86 ) Y6 )  ( <= ( + Y6 47 ) Y5 )  )
( or ( <= ( + X5 61 ) X7 )  ( <= ( + X7 78 ) X5 )  ( <= ( + Y5 86 ) Y7 )  ( <= ( + Y7 49 ) Y5 )  )
( or ( <= ( + X5 61 ) X8 )  ( <= ( + X8 50 ) X5 )  ( <= ( + Y5 86 ) Y8 )  ( <= ( + Y8 88 ) Y5 )  )
( or ( <= ( + X6 66 ) X7 )  ( <= ( + X7 78 ) X6 )  ( <= ( + Y6 47 ) Y7 )  ( <= ( + Y7 49 ) Y6 )  )
( or ( <= ( + X6 66 ) X8 )  ( <= ( + X8 50 ) X6 )  ( <= ( + Y6 47 ) Y8 )  ( <= ( + Y8 88 ) Y6 )  )
( or ( <= ( + X7 78 ) X8 )  ( <= ( + X8 50 ) X7 )  ( <= ( + Y7 49 ) Y8 )  ( <= ( + Y8 88 ) Y7 )  )
( >= X0 0)
( <= ( + X0 87) Z)
( >= Y0 0)
( <= ( + Y0 46 ) 100)
( >= X1 0)
( <= ( + X1 58) Z)
( >= Y1 0)
( <= ( + Y1 18 ) 100)
( >= X2 0)
( <= ( + X2 36) Z)
( >= Y2 0)
( <= ( + Y2 100 ) 100)
( >= X3 0)
( <= ( + X3 88) Z)
( >= Y3 0)
( <= ( + Y3 82 ) 100)
( >= X4 0)
( <= ( + X4 78) Z)
( >= Y4 0)
( <= ( + Y4 25 ) 100)
( >= X5 0)
( <= ( + X5 61) Z)
( >= Y5 0)
( <= ( + Y5 86 ) 100)
( >= X6 0)
( <= ( + X6 66) Z)
( >= Y6 0)
( <= ( + Y6 47 ) 100)
( >= X7 0)
( <= ( + X7 78) Z)
( >= Y7 0)
( <= ( + Y7 49 ) 100)
( >= X8 0)
( <= ( + X8 50) Z)
( >= Y8 0)
( <= ( + Y8 88 ) 100)
) )
)(=> $phi $goal))))